SYSTEM = opt
PREC = Accurate
ENCUT = 520
KSPACING = 0.2
EDIFF = 1e-06
EDIFFG = -0.02
IBRION = 2
ISIF = 3
NSW = 60
ISTART = 0
ICHARG = 2
ISMEAR = 0
SIGMA = 0.05
LREAL = Auto
LCHARG = .F.
LWAVE = .F.
IALGO = 38
POTIM = 0.02
IVDW = 11
