ISTART = 0
LCHARG = .T.
POTIM = 0.02
IALGO = 38
LREAL = Auto
SYSTEM = scf
ENCUT = 520
ISIF = 3
ICHARG = 2
LELF = .TRUE.
LAECHG = .TRUE.
IBRION = -1
PREC = Accurate
ISMEAR = 0
EDIFF = 1e-06
LWAVE = .T.
NSW = 0
SIGMA = 0.05
KSPACING = 0.2
EDIFFG = -0.02
IVDW = 11
